SCIP version 8.0.0 [precision: 8 byte] [memory: block] [mode: optimized] [LP solver: SoPlex 6.0.0] [GitHash: a740f0891e]
Copyright (C) 2002-2021 Konrad-Zuse-Zentrum fuer Informationstechnik Berlin (ZIB)

External libraries: 
  SoPlex 6.0.0         Linear Programming Solver developed at Zuse Institute Berlin (soplex.zib.de) [GitHash: 71a5873d]
  CppAD 20180000.0     Algorithmic Differentiation of C++ algorithms developed by B. Bell (github.com/coin-or/CppAD)
  ZLIB 1.2.11          General purpose compression library by J. Gailly and M. Adler (zlib.net)
  GMP 6.2.1            GNU Multiple Precision Arithmetic Library developed by T. Granlund (gmplib.org)
  ZIMPL 3.5.1          Zuse Institute Mathematical Programming Language developed by T. Koch (zimpl.zib.de)
  AMPL/MP 4e2d45c4     AMPL .nl file reader library (github.com/ampl/mp)
  PaPILO 2.0.0         parallel presolve for integer and linear optimization (github.com/scipopt/papilo) [GitHash: 76cafc1]
  bliss 0.73p          Computing Graph Automorphism Groups by T. Junttila and P. Kaski (www.tcs.hut.fi/Software/bliss/)
  Ipopt 3.13.2         Interior Point Optimizer developed by A. Waechter et.al. (github.com/coin-or/Ipopt)

user parameter file <scip.set> not found - using default parameters

read problem <../modeles/2_159.lp>
============

original problem has 640 variables (318 bin, 0 int, 0 impl, 322 cont) and 327 constraints

solve problem
=============

presolving:
(round 1, fast)       2 del vars, 0 del conss, 0 add conss, 680 chg bounds, 0 chg sides, 0 chg coeffs, 0 upgd conss, 0 impls, 2 clqs
(round 2, fast)       2 del vars, 0 del conss, 0 add conss, 680 chg bounds, 0 chg sides, 316 chg coeffs, 0 upgd conss, 0 impls, 2 clqs
   (0.0s) running MILP presolver
   (0.0s) MILP presolver (23 rounds): 0 aggregations, 178 fixings, 4 bound changes
(round 3, medium)     180 del vars, 327 del conss, 241 add conss, 684 chg bounds, 0 chg sides, 316 chg coeffs, 0 upgd conss, 0 impls, 2 clqs
(round 4, exhaustive) 180 del vars, 327 del conss, 241 add conss, 684 chg bounds, 0 chg sides, 316 chg coeffs, 18 upgd conss, 0 impls, 2 clqs
   (0.0s) sparsify finished: 4/1614 (0.2%) nonzeros canceled - in total 4 canceled nonzeros, 234 changed coefficients, 0 added nonzeros
(round 5, exhaustive) 180 del vars, 327 del conss, 241 add conss, 684 chg bounds, 0 chg sides, 550 chg coeffs, 18 upgd conss, 16 impls, 2 clqs
(round 6, exhaustive) 205 del vars, 327 del conss, 241 add conss, 684 chg bounds, 0 chg sides, 550 chg coeffs, 18 upgd conss, 6024 impls, 2 clqs
(round 7, fast)       206 del vars, 336 del conss, 241 add conss, 685 chg bounds, 0 chg sides, 550 chg coeffs, 18 upgd conss, 6024 impls, 2 clqs
(round 8, exhaustive) 206 del vars, 336 del conss, 241 add conss, 685 chg bounds, 0 chg sides, 550 chg coeffs, 38 upgd conss, 6024 impls, 2 clqs
(round 9, exhaustive) 231 del vars, 336 del conss, 241 add conss, 685 chg bounds, 0 chg sides, 550 chg coeffs, 38 upgd conss, 13203 impls, 2 clqs
(round 10, fast)       232 del vars, 347 del conss, 241 add conss, 686 chg bounds, 0 chg sides, 550 chg coeffs, 38 upgd conss, 13203 impls, 2 clqs
(round 11, exhaustive) 232 del vars, 347 del conss, 241 add conss, 686 chg bounds, 0 chg sides, 550 chg coeffs, 49 upgd conss, 13203 impls, 2 clqs
(round 12, exhaustive) 257 del vars, 347 del conss, 241 add conss, 686 chg bounds, 0 chg sides, 550 chg coeffs, 49 upgd conss, 16620 impls, 2 clqs
(round 13, fast)       257 del vars, 363 del conss, 241 add conss, 686 chg bounds, 0 chg sides, 550 chg coeffs, 49 upgd conss, 16620 impls, 2 clqs
   (0.1s) running MILP presolver
   (0.1s) MILP presolver (5 rounds): 0 aggregations, 14 fixings, 0 bound changes
(round 14, medium)     271 del vars, 370 del conss, 241 add conss, 686 chg bounds, 0 chg sides, 550 chg coeffs, 49 upgd conss, 16620 impls, 2 clqs
(round 15, fast)       271 del vars, 372 del conss, 241 add conss, 686 chg bounds, 0 chg sides, 550 chg coeffs, 49 upgd conss, 16620 impls, 2 clqs
(round 16, exhaustive) 271 del vars, 372 del conss, 241 add conss, 686 chg bounds, 0 chg sides, 550 chg coeffs, 50 upgd conss, 16620 impls, 2 clqs
   (0.1s) probing cycle finished: starting next cycle
   (0.1s) probing: 51/182 (28.0%) - 78 fixings, 0 aggregations, 19119 implications, 0 bound changes
   (0.1s) probing aborted: 50/50 successive totally useless probings
(round 17, exhaustive) 274 del vars, 372 del conss, 241 add conss, 686 chg bounds, 0 chg sides, 550 chg coeffs, 50 upgd conss, 19167 impls, 2 clqs
(round 18, fast)       274 del vars, 374 del conss, 241 add conss, 686 chg bounds, 0 chg sides, 550 chg coeffs, 50 upgd conss, 19167 impls, 2 clqs
   (0.1s) probing: 56/182 (30.8%) - 78 fixings, 0 aggregations, 19119 implications, 0 bound changes
   (0.1s) probing aborted: 50/50 successive totally useless probings
   (0.1s) symmetry computation started: requiring (bin +, int -, cont +), (fixed: bin -, int +, cont -)
   (0.1s) no symmetry present
presolving (19 rounds: 19 fast, 12 medium, 10 exhaustive):
 274 deleted vars, 374 deleted constraints, 241 added constraints, 686 tightened bounds, 0 added holes, 0 changed sides, 550 changed coefficients
 19167 implications, 2 cliques
presolved problem has 366 variables (182 bin, 0 int, 0 impl, 184 cont) and 191 constraints
      4 constraints of type <varbound>
      2 constraints of type <setppc>
    185 constraints of type <linear>
Presolving Time: 0.14

 time | node  | left  |LP iter|LP it/n|mem/heur|mdpt |vars |cons |rows |cuts |sepa|confs|strbr|  dualbound   | primalbound  |  gap   | compl. 
  0.1s|     1 |     0 |    88 |     - |  9657k |   0 | 366 | 191 | 191 |   0 |  0 |   0 |   0 |-1.413999e+00 |      --      |    Inf | unknown
r 0.1s|     1 |     0 |    88 |     - |shifting|   0 | 366 | 191 | 191 |   0 |  0 |   0 |   0 |-1.413999e+00 |-1.132075e+00 |  24.90%| unknown
  0.1s|     1 |     0 |    89 |     - |  9701k |   0 | 366 | 191 | 192 |   1 |  1 |   0 |   0 |-1.413999e+00 |-1.132075e+00 |  24.90%| unknown
  0.1s|     1 |     0 |    90 |     - |  9744k |   0 | 366 | 191 | 193 |   2 |  2 |   0 |   0 |-1.413999e+00 |-1.132075e+00 |  24.90%| unknown
  0.2s|     1 |     0 |    91 |     - |  9764k |   0 | 366 | 191 | 194 |   3 |  3 |   0 |   0 |-1.413999e+00 |-1.132075e+00 |  24.90%| unknown
  0.2s|     1 |     0 |    92 |     - |  9800k |   0 | 366 | 191 | 195 |   4 |  4 |   0 |   0 |-1.413999e+00 |-1.132075e+00 |  24.90%| unknown
  0.2s|     1 |     0 |    93 |     - |  9829k |   0 | 366 | 191 | 196 |   5 |  5 |   0 |   0 |-1.413999e+00 |-1.132075e+00 |  24.90%| unknown
  0.2s|     1 |     0 |    94 |     - |  9914k |   0 | 366 | 191 | 197 |   6 |  6 |   0 |   0 |-1.413999e+00 |-1.132075e+00 |  24.90%| unknown
  0.2s|     1 |     0 |    95 |     - |  9935k |   0 | 366 | 191 | 198 |   7 |  7 |   0 |   0 |-1.413999e+00 |-1.132075e+00 |  24.90%| unknown
r 0.2s|     1 |     0 |    95 |     - |randroun|   0 | 366 | 191 | 198 |   0 |  7 |   0 |   0 |-1.413999e+00 |-1.413999e+00 |   0.00%| unknown
  0.2s|     1 |     0 |    95 |     - |  9937k |   0 | 366 | 191 | 198 |   7 |  7 |   0 |   0 |-1.413999e+00 |-1.413999e+00 |   0.00%| unknown

SCIP Status        : problem is solved [optimal solution found]
Solving Time (sec) : 0.16
Solving Nodes      : 1
Primal Bound       : -1.41399932614555e+00 (5 solutions)
Dual Bound         : -1.41399932614555e+00
Gap                : 0.00 %

primal solution (original space):
=================================

objective value:                    -1.41399932614555
y_1,52_                                             1 	(obj:0)
y_2,52_                                             1 	(obj:0)
x_1_                               -0.704402515723271 	(obj:1)
t_2,52_                               0.7064732142857 	(obj:0)
t_2,53_                               0.2935267857143 	(obj:0)
t_1,52_                                           0.5 	(obj:0)
t_1,53_                                           0.5 	(obj:0)
x_2_                               -0.709596810422282 	(obj:1)

Statistics
==========

SCIP Status        : problem is solved [optimal solution found]
Total Time         :       0.16
  solving          :       0.16
  presolving       :       0.14 (included in solving)
  reading          :       0.00
  copying          :       0.00 (0 times copied the problem)
Original Problem   :
  Problem name     : ../modeles/2_159.lp
  Variables        : 640 (318 binary, 0 integer, 0 implicit integer, 322 continuous)
  Constraints      : 327 initial, 327 maximal
  Objective        : minimize, 2 non-zeros (abs.min = 1, abs.max = 1)
Presolved Problem  :
  Problem name     : t_../modeles/2_159.lp
  Variables        : 366 (182 binary, 0 integer, 0 implicit integer, 184 continuous)
  Constraints      : 191 initial, 191 maximal
  Objective        : minimize, 184 non-zeros (abs.min = 0.0125786, abs.max = 1.14465)
  Nonzeros         : 1278 constraint, 182 clique table
Presolvers         :   ExecTime  SetupTime  Calls  FixedVars   AggrVars   ChgTypes  ChgBounds   AddHoles    DelCons    AddCons   ChgSides   ChgCoefs
  boundshift       :       0.00       0.00      0          0          0          0          0          0          0          0          0          0
  convertinttobin  :       0.00       0.00      0          0          0          0          0          0          0          0          0          0
  domcol           :       0.00       0.00      6          0          0          0          0          0          0          0          0          0
  dualagg          :       0.00       0.00      0          0          0          0          0          0          0          0          0          0
  dualcomp         :       0.00       0.00      6          0          0          0          0          0          0          0          0          0
  dualinfer        :       0.00       0.00      0          0          0          0          0          0          0          0          0          0
  dualsparsify     :       0.00       0.00      1          0          0          0          0          0          0          0          0          0
  gateextraction   :       0.00       0.00      0          0          0          0          0          0          0          0          0          0
  implics          :       0.00       0.00     12          0          0          0          0          0          0          0          0          0
  inttobinary      :       0.00       0.00      0          0          0          0          0          0          0          0          0          0
  milp             :       0.04       0.00      2        192          0          0          4          0        327        241          0          0
  qpkktref         :       0.00       0.00      0          0          0          0          0          0          0          0          0          0
  redvub           :       0.00       0.00      0          0          0          0          0          0          0          0          0          0
  sparsify         :       0.02       0.00      3          0          0          0          0          0          0          0          0        234
  stuffing         :       0.00       0.00      0          0          0          0          0          0          0          0          0          0
  trivial          :       0.00       0.00     19          0          0          0          0          0          0          0          0          0
  tworowbnd        :       0.00       0.00      0          0          0          0          0          0          0          0          0          0
  dualfix          :       0.00       0.00     19          0          0          0          0          0          0          0          0          0
  genvbounds       :       0.00       0.00      0          0          0          0          0          0          0          0          0          0
  probing          :       0.07       0.00      5         78          0          0          0          0          0          0          0          0
  pseudoobj        :       0.00       0.00      0          0          0          0          0          0          0          0          0          0
  symmetry         :       0.00       0.00      1          0          0          0          0          0          0          0          0          0
  vbounds          :       0.00       0.00      1          0          0          0          0          0          0          0          0          0
  varbound         :       0.00       0.00     25          0          0          0          1          0         44          0          0          0
  setppc           :       0.00       0.00     34          0          0          0          0          0          0          0          0          0
  linear           :       0.01       0.00     29          2          2          0        681          0          3          0          0        316
  benders          :       0.00       0.00      0          0          0          0          0          0          0          0          0          0
  components       :       0.00       0.00      1          0          0          0          0          0          0          0          0          0
  root node        :          -          -      -          0          -          -          0          -          -          -          -          -
Constraints        :     Number  MaxNumber  #Separate #Propagate    #EnfoLP    #EnfoRelax  #EnfoPS    #Check   #ResProp    Cutoffs    DomReds       Cuts    Applied      Conss   Children
  benderslp        :          0          0          0          0          0          0          0         22          0          0          0          0          0          0          0
  integral         :          0          0          0          0          0          0          0         22          0          0          0          0          0          0          0
  varbound         :          4          4          7        927          0          0          0         16          0          0          0          0          0          0          0
  setppc           :          2          2          7        901          0          0          0         16          0          0          0          0          0          0          0
  linear           :        185        185          7        932          0          0          0          6          0         65          0          0          0          0          0
  benders          :          0          0          0          0          0          0          0          6          0          0          0          0          0          0          0
  countsols        :          0          0          0          0          0          0          0          6          0          0          0          0          0          0          0
  components       :          0          0          0          0          0          0          0          0          0          0          0          0          0          0          0
Constraint Timings :  TotalTime  SetupTime   Separate  Propagate     EnfoLP     EnfoPS     EnfoRelax   Check    ResProp    SB-Prop
  benderslp        :       0.00       0.00       0.00       0.00       0.00       0.00       0.00       0.00       0.00       0.00
  integral         :       0.00       0.00       0.00       0.00       0.00       0.00       0.00       0.00       0.00       0.00
  varbound         :       0.00       0.00       0.00       0.00       0.00       0.00       0.00       0.00       0.00       0.00
  setppc           :       0.00       0.00       0.00       0.00       0.00       0.00       0.00       0.00       0.00       0.00
  linear           :       0.02       0.00       0.00       0.02       0.00       0.00       0.00       0.00       0.00       0.00
  benders          :       0.00       0.00       0.00       0.00       0.00       0.00       0.00       0.00       0.00       0.00
  countsols        :       0.00       0.00       0.00       0.00       0.00       0.00       0.00       0.00       0.00       0.00
  components       :       0.00       0.00       0.00       0.00       0.00       0.00       0.00       0.00       0.00       0.00
Propagators        : #Propagate   #ResProp    Cutoffs    DomReds
  dualfix          :          1          0          0          0
  genvbounds       :          0          0          0          0
  nlobbt           :          0          0          0          0
  obbt             :          0          0          0          0
  probing          :          0          0          0          0
  pseudoobj        :          9          0          0          0
  redcost          :          8          0          0          0
  rootredcost      :          0          0          0          0
  symmetry         :          0          0          0          0
  vbounds          :         78          0          0          0
Propagator Timings :  TotalTime  SetupTime   Presolve  Propagate    ResProp    SB-Prop
  dualfix          :       0.00       0.00       0.00       0.00       0.00       0.00
  genvbounds       :       0.00       0.00       0.00       0.00       0.00       0.00
  nlobbt           :       0.00       0.00       0.00       0.00       0.00       0.00
  obbt             :       0.00       0.00       0.00       0.00       0.00       0.00
  probing          :       0.07       0.00       0.07       0.00       0.00       0.00
  pseudoobj        :       0.00       0.00       0.00       0.00       0.00       0.00
  redcost          :       0.00       0.00       0.00       0.00       0.00       0.00
  rootredcost      :       0.00       0.00       0.00       0.00       0.00       0.00
  symmetry         :       0.00       0.00       0.00       0.00       0.00       0.00
  vbounds          :       0.00       0.00       0.00       0.00       0.00       0.00
Conflict Analysis  :       Time      Calls    Success    DomReds  Conflicts   Literals    Reconvs ReconvLits   Dualrays   Nonzeros   LP Iters   (pool size: [--,--])
  propagation      :       0.00          0          0          -          0        0.0          0        0.0          -          -          -
  infeasible LP    :       0.00          1          0          -          0        0.0          0        0.0          0        0.0          0
  bound exceed. LP :       0.00          0          0          -          0        0.0          0        0.0          0        0.0          0
  strong branching :       0.00          0          0          -          0        0.0          0        0.0          -          -          0
  pseudo solution  :       0.00          0          0          -          0        0.0          0        0.0          -          -          -
  applied globally :       0.00          -          -          0          0        0.0          -          -          0          -          -
  applied locally  :          -          -          -          0          0        0.0          -          -          0          -          -
Separators         :   ExecTime  SetupTime      Calls    Cutoffs    DomReds       Cuts    Applied      Conss
  cut pool         :       0.00                    13          -          -         14          -          -    (maximal pool size: 39)
  aggregation      :       0.01       0.00          7          0          0         28          7          0
  > cmir           :          -          -          -          -          -          -          7          -
  > flowcover      :          -          -          -          -          -          -          0          -
  > knapsackcover  :          -          -          -          -          -          -          0          -
  cgmip            :       0.00       0.00          0          0          0          0          0          0
  clique           :       0.00       0.00          7          0          0          0          0          0
  closecuts        :       0.00       0.00          0          0          0          0          0          0
  convexproj       :       0.00       0.00          0          0          0          0          0          0
  disjunctive      :       0.00       0.00          0          0          0          0          0          0
  eccuts           :       0.00       0.00          0          0          0          0          0          0
  gauge            :       0.00       0.00          0          0          0          0          0          0
  gomory           :       0.00       0.00          7          0          0         11          0          0
  > gomorymi       :          -          -          -          -          -          -          0          -
  > strongcg       :          -          -          -          -          -          -          0          -
  impliedbounds    :       0.00       0.00          7          0          0          0          0          0
  interminor       :       0.00       0.00          0          0          0          0          0          0
  intobj           :       0.00       0.00          0          0          0          0          0          0
  mcf              :       0.00       0.00          1          0          0          0          0          0
  minor            :       0.00       0.00          0          0          0          0          0          0
  mixing           :       0.00       0.00          7          0          0          0          0          0
  oddcycle         :       0.00       0.00          0          0          0          0          0          0
  rapidlearning    :       0.00       0.00          0          0          0          0          0          0
  rlt              :       0.00       0.00          7          0          0          0          0          0
  zerohalf         :       0.00       0.00          7          0          0          0          0          0
Cutselectors       :   ExecTime  SetupTime
  hybrid           :       0.00       0.00
Pricers            :   ExecTime  SetupTime      Calls       Vars
  problem variables:       0.00          -          0          0
Branching Rules    :   ExecTime  SetupTime   BranchLP  BranchExt   BranchPS    Cutoffs    DomReds       Cuts      Conss   Children
  allfullstrong    :       0.00       0.00          0          0          0          0          0          0          0          0
  cloud            :       0.00       0.00          0          0          0          0          0          0          0          0
  distribution     :       0.00       0.00          0          0          0          0          0          0          0          0
  fullstrong       :       0.00       0.00          0          0          0          0          0          0          0          0
  inference        :       0.00       0.00          0          0          0          0          0          0          0          0
  leastinf         :       0.00       0.00          0          0          0          0          0          0          0          0
  lookahead        :       0.00       0.00          0          0          0          0          0          0          0          0
  mostinf          :       0.00       0.00          0          0          0          0          0          0          0          0
  multaggr         :       0.00       0.00          0          0          0          0          0          0          0          0
  nodereopt        :       0.00       0.00          0          0          0          0          0          0          0          0
  pscost           :       0.00       0.00          0          0          0          0          0          0          0          0
  random           :       0.00       0.00          0          0          0          0          0          0          0          0
  relpscost        :       0.00       0.00          0          0          0          0          0          0          0          0
  vanillafullstrong:       0.00       0.00          0          0          0          0          0          0          0          0
Primal Heuristics  :   ExecTime  SetupTime      Calls      Found       Best
  LP solutions     :       0.00          -          -          0          0
  relax solutions  :       0.00          -          -          0          0
  pseudo solutions :       0.00          -          -          0          0
  strong branching :       0.00          -          -          0          0
  actconsdiving    :       0.00       0.00          0          0          0
  adaptivediving   :       0.00       0.00          0          0          0
  alns             :       0.00       0.00          0          0          0
  bound            :       0.00       0.00          0          0          0
  clique           :       0.00       0.00          1          0          0
  coefdiving       :       0.00       0.00          0          0          0
  completesol      :       0.00       0.00          0          0          0
  conflictdiving   :       0.00       0.00          0          0          0
  crossover        :       0.00       0.00          0          0          0
  dins             :       0.00       0.00          0          0          0
  distributiondivin:       0.00       0.00          0          0          0
  dps              :       0.00       0.00          0          0          0
  dualval          :       0.00       0.00          0          0          0
  farkasdiving     :       0.00       0.00          0          0          0
  feaspump         :       0.00       0.00          0          0          0
  fixandinfer      :       0.00       0.00          0          0          0
  fracdiving       :       0.00       0.00          0          0          0
  gins             :       0.00       0.00          0          0          0
  guideddiving     :       0.00       0.00          0          0          0
  indicator        :       0.00       0.00          0          0          0
  intdiving        :       0.00       0.00          0          0          0
  intshifting      :       0.00       0.00          0          0          0
  linesearchdiving :       0.00       0.00          0          0          0
  localbranching   :       0.00       0.00          0          0          0
  locks            :       0.00       0.00          1          0          0
  lpface           :       0.00       0.00          0          0          0
  mpec             :       0.00       0.00          0          0          0
  multistart       :       0.00       0.00          0          0          0
  mutation         :       0.00       0.00          0          0          0
  nlpdiving        :       0.00       0.00          0          0          0
  objpscostdiving  :       0.00       0.00          0          0          0
  octane           :       0.00       0.00          0          0          0
  ofins            :       0.00       0.00          0          0          0
  oneopt           :       0.00       0.00          1          0          0
  padm             :       0.00       0.00          0          0          0
  proximity        :       0.00       0.00          0          0          0
  pscostdiving     :       0.00       0.00          0          0          0
  randrounding     :       0.00       0.00          8          1          1
  rens             :       0.00       0.00          0          0          0
  reoptsols        :       0.00       0.00          0          0          0
  repair           :       0.00       0.00          0          0          0
  rins             :       0.00       0.00          0          0          0
  rootsoldiving    :       0.00       0.00          0          0          0
  rounding         :       0.00       0.00          7          0          0
  shiftandpropagate:       0.00       0.00          1          0          0
  shifting         :       0.00       0.00          7          4          1
  simplerounding   :       0.00       0.00          0          0          0
  subnlp           :       0.00       0.00          0          0          0
  trivial          :       0.00       0.00          2          0          0
  trivialnegation  :       0.00       0.00          0          0          0
  trustregion      :       0.00       0.00          0          0          0
  trysol           :       0.00       0.00          0          0          0
  twoopt           :       0.00       0.00          0          0          0
  undercover       :       0.00       0.00          0          0          0
  vbounds          :       0.00       0.00          0          0          0
  veclendiving     :       0.00       0.00          0          0          0
  zeroobj          :       0.00       0.00          0          0          0
  zirounding       :       0.00       0.00          0          0          0
  other solutions  :          -          -          -          0          -
Diving (single)    :      Calls      Nodes   LP Iters Backtracks  Conflicts   MinDepth   MaxDepth   AvgDepth  RoundSols  NLeafSols  MinSolDpt  MaxSolDpt  AvgSolDpt
  actconsdiving    :          0          -          -          -          -          -          -          -          -          -          -          -          -
  coefdiving       :          0          -          -          -          -          -          -          -          -          -          -          -          -
  conflictdiving   :          0          -          -          -          -          -          -          -          -          -          -          -          -
  distributiondivin:          0          -          -          -          -          -          -          -          -          -          -          -          -
  farkasdiving     :          0          -          -          -          -          -          -          -          -          -          -          -          -
  fracdiving       :          0          -          -          -          -          -          -          -          -          -          -          -          -
  guideddiving     :          0          -          -          -          -          -          -          -          -          -          -          -          -
  linesearchdiving :          0          -          -          -          -          -          -          -          -          -          -          -          -
  pscostdiving     :          0          -          -          -          -          -          -          -          -          -          -          -          -
  veclendiving     :          0          -          -          -          -          -          -          -          -          -          -          -          -
Diving (adaptive)  :      Calls      Nodes   LP Iters Backtracks  Conflicts   MinDepth   MaxDepth   AvgDepth  RoundSols  NLeafSols  MinSolDpt  MaxSolDpt  AvgSolDpt
  actconsdiving    :          0          -          -          -          -          -          -          -          -          -          -          -          -
  coefdiving       :          0          -          -          -          -          -          -          -          -          -          -          -          -
  conflictdiving   :          0          -          -          -          -          -          -          -          -          -          -          -          -
  distributiondivin:          0          -          -          -          -          -          -          -          -          -          -          -          -
  farkasdiving     :          0          -          -          -          -          -          -          -          -          -          -          -          -
  fracdiving       :          0          -          -          -          -          -          -          -          -          -          -          -          -
  guideddiving     :          0          -          -          -          -          -          -          -          -          -          -          -          -
  linesearchdiving :          0          -          -          -          -          -          -          -          -          -          -          -          -
  pscostdiving     :          0          -          -          -          -          -          -          -          -          -          -          -          -
  veclendiving     :          0          -          -          -          -          -          -          -          -          -          -          -          -
Neighborhoods      :      Calls  SetupTime  SolveTime SolveNodes       Sols       Best       Exp3  EpsGreedy        UCB TgtFixRate  Opt  Inf Node Stal  Sol  Usr Othr Actv
  rens             :          0       0.00       0.00          0          0          0    0.00000   -1.00000    1.00000      0.900    0    0    0    0    0    0    0    1
  rins             :          0       0.00       0.00          0          0          0    0.00000   -1.00000    1.00000      0.900    0    0    0    0    0    0    0    1
  mutation         :          0       0.00       0.00          0          0          0    0.00000   -1.00000    1.00000      0.900    0    0    0    0    0    0    0    1
  localbranching   :          0       0.00       0.00          0          0          0    0.00000   -1.00000    1.00000      0.900    0    0    0    0    0    0    0    1
  crossover        :          0       0.00       0.00          0          0          0    0.00000   -1.00000    1.00000      0.900    0    0    0    0    0    0    0    1
  proximity        :          0       0.00       0.00          0          0          0    0.00000   -1.00000    1.00000      0.900    0    0    0    0    0    0    0    1
  zeroobjective    :          0       0.00       0.00          0          0          0    0.00000   -1.00000    1.00000      0.900    0    0    0    0    0    0    0    1
  dins             :          0       0.00       0.00          0          0          0    0.00000   -1.00000    1.00000      0.900    0    0    0    0    0    0    0    1
  trustregion      :          0       0.00       0.00          0          0          0    0.00000   -1.00000    1.00000      0.900    0    0    0    0    0    0    0    0
LP                 :       Time      Calls Iterations  Iter/call   Iter/sec  Time-0-It Calls-0-It    ItLimit
  primal LP        :       0.00          0          0       0.00          -       0.00          0
  dual LP          :       0.00          8         91      11.38          -       0.00          0
  lex dual LP      :       0.00          0          0       0.00          -
  barrier LP       :       0.00          0          0       0.00          -       0.00          0
  resolve instable :       0.00          0          0       0.00          -
  diving/probing LP:       0.00          1          4       4.00          -
  strong branching :       0.00          0          0       0.00          -          -          -          0
    (at root node) :          -          0          0       0.00          -
  conflict analysis:       0.00          0          0       0.00          -
B&B Tree           :
  number of runs   :          1
  nodes            :          1 (0 internal, 1 leaves)
  feasible leaves  :          0
  infeas. leaves   :          0
  objective leaves :          1
  nodes (total)    :          1 (0 internal, 1 leaves)
  nodes left       :          0
  max depth        :          0
  max depth (total):          0
  backtracks       :          0 (0.0%)
  early backtracks :          0 (0.0%)
  nodes exc. ref.  :          0 (0.0%)
  delayed cutoffs  :          0
  repropagations   :          0 (0 domain reductions, 0 cutoffs)
  avg switch length:       2.00
  switching time   :       0.00
Estim. Tree Size   :          1
Estimation Tree    : 1 nodes (1 visited, 0 internal, 1 leaves, 0 open), weight: 1.0000 completed 1.0000
Estimations        :      estim      value      trend resolution     smooth
  wbe              :          1          -          -          -          -
  tree-profile     :         -1          -          -          -          -
  gap              :          1    1.00000    1.00000          1          1
  tree-weight      :          1    1.00000    1.00000          1          1
  leaf-frequency   :          1    0.50000    1.00000          1          1
  ssg              :          1    0.00000   -1.00000          1          1
  open-nodes       :          1    0.00000    0.00000          1          1
Root Node          :
  First LP value   : -1.41399932614555e+00
  First LP Iters   :         84 (104607.72 Iter/sec)
  First LP Time    :       0.00
  Final Dual Bound : -1.41399932614555e+00
  Final Root Iters :         91
  Root LP Estimate :                     -
Solution           :
  Solutions found  :          5 (2 improvements)
  First Solution   : -1.13207547169811e+00   (in run 1, after 1 nodes, 0.15 seconds, depth 0, found by <shifting>)
  Gap First Sol.   :      24.90 %
  Gap Last Sol.    :       0.00 %
  Primal Bound     : -1.41399932614555e+00   (in run 1, after 1 nodes, 0.16 seconds, depth 3, found by <randrounding>)
  Dual Bound       : -1.41399932614555e+00
  Gap              :       0.00 %
Integrals          :      Total       Avg%
  primal-dual      :      14.84      92.83
  primal-ref       :          -          - (not evaluated)
  dual-ref         :          -          - (not evaluated)
